# Solution for model GasLib-40
# Objective value = 1.0965853634617170e+01
loadshed[innode_1] 0
loadshed[innode_2] 0
loadshed[innode_3] 0
loadshed[innode_4] 0
loadshed[innode_5] 0
loadshed[innode_6] 0
loadshed[innode_7] 0
loadshed[innode_8] 0
loadshed[source_1] -3.2548663114260190e-01
loadshed[source_2] 7.2183526313534530e-02
loadshed[source_3] 3.2266760838199071e-01
loadshed[sink_1] 0
loadshed[sink_2] 0
loadshed[sink_3] 0
loadshed[sink_4] 0
loadshed[sink_5] 0
loadshed[sink_6] 0
loadshed[sink_7] 0
loadshed[sink_8] 0
loadshed[sink_9] 0
loadshed[sink_10] 0
loadshed[sink_11] 0
loadshed[sink_12] 0.670523534346018
loadshed[sink_13] 0
loadshed[sink_14] 0
loadshed[sink_15] 0
loadshed[sink_16] 0
loadshed[sink_17] 0
loadshed[sink_18] 0
loadshed[sink_19] 0
loadshed[sink_20] 0
loadshed[sink_21] 0
loadshed[sink_22] 0
loadshed[sink_23] 0
loadshed[sink_24] 0
loadshed[sink_25] 0
loadshed[sink_26] 0
loadshed[sink_27] 0
loadshed[sink_28] 0
loadshed[sink_29] 0
flow[source_1,sink_3] 2.0954654970806479e+02
flow[innode_1,sink_16] 1.6354166666666970e+01
flow[innode_6,sink_13] 7.3995007279024776e+00
flow[sink_13,sink_14] -8.95466593876419
flow[sink_14,sink_10] -2.5308832605431007e+01
flow[sink_25,sink_26] 1.6869668492989194e+02
flow[sink_26,sink_9] 1.2755857836628556e+02
flow[sink_9,sink_18] 1.1120441169961889e+02
flow[sink_26,sink_4] 2.4783939896939785e+01
flow[sink_4,sink_20] 8.4297732302731
flow[sink_18,sink_6] 9.4850245032952216e+01
flow[sink_25,innode_8] -1.7683821637472840e+02
flow[sink_6,sink_7] 4.5787745032951079e+01
flow[sink_6,sink_22] 3.2708333333333641e+01
flow[sink_7,sink_24] 3.8096646365382838e+01
flow[sink_22,sink_1] 1.6354166666666970e+01
flow[sink_24,sink_21] 2.1742479698716167e+01
flow[sink_21,sink_12] 5.3883130320494983e+00
flow[sink_7,sink_5] -8.6630679990977910e+00
flow[sink_5,sink_17] -2.5017234665764363e+01
flow[sink_17,sink_4] 0
flow[sink_17,sink_8] -4.1371401332431006e+01
flow[sink_3,sink_23] 16.3541666666697
flow[sink_8,sink_20] -5.7725567999097677e+01
flow[sink_25,sink_20] 65.6499614354912
flow[sink_25,sink_15] -81.2620973852237
flow[sink_15,sink_29] 0
flow[sink_29,sink_28] 1.6354166666667879e+01
flow[sink_29,sink_2] 1.1397043071855704e+02
flow[sink_2,sink_15] 9.7616264051890369e+01
flow[sink_29,innode_7] -1.4667876405189156e+02
flow[innode_4,sink_19] 1.0707966593877764e+02
flow[sink_19,innode_3] 3.6292896390226190e+01
flow[innode_4,innode_5] 0
flow[sink_27,innode_5] 0
flow[sink_27,sink_19] -1.6354166666679703e+01
flow[sink_10,sink_11] 3.2708333333333641e+01
flow[sink_10,innode_2] -3.8078436215205073e+01
flow[sink_10,innode_3] -3.6292896390226190e+01
flow[innode_6,sink_25] -7.3995007279024776e+00
flow[sink_11,innode_1] 1.6354166666666970e+01
flow[sink_19,innode_2] 3.8078436215205073e+01
flow[source_3,innode_4] 1.0707966593877764e+02
flow[source_2,innode_7] 1.4667876405189156e+02
flow[sink_3,innode_8] 1.7683821637472840e+02
pressure[innode_1] 74.5108759616068
pressure[innode_2] 7.6675179892276248e+01
pressure[innode_3] 7.6594813382944778e+01
pressure[innode_4] 81.01325
pressure[innode_5] 81.01325
pressure[innode_6] 73.4902720977447
pressure[innode_7] 81.01325
pressure[innode_8] 8.0312815934009407e+01
pressure[source_1] 81.01325
pressure[source_2] 81.01325
pressure[source_3] 81.01325
pressure[sink_1] 4.5316784892850059e+01
pressure[sink_2] 7.4203168041476388e+01
pressure[sink_3] 8.0312815934009407e+01
pressure[sink_4] 5.8457969386004592e+01
pressure[sink_5] 5.0392208140933413e+01
pressure[sink_6] 4.7417862503237430e+01
pressure[sink_7] 4.6789305905400461e+01
pressure[sink_8] 5.3816861746297178e+01
pressure[sink_9] 5.3974353513351048e+01
pressure[sink_10] 7.4662577269210345e+01
pressure[sink_11] 74.5108759616068
pressure[sink_12] 1.01325
pressure[sink_13] 7.3449479886803218e+01
pressure[sink_14] 7.3465505024269518e+01
pressure[sink_15] 7.3884472453625037e+01
pressure[sink_16] 7.3489226126789120e+01
pressure[sink_17] 5.2255811293766868e+01
pressure[sink_18] 4.9950646451909620e+01
pressure[sink_19] 7.6675179892276248e+01
pressure[sink_20] 5.7839522025525483e+01
pressure[sink_21] 2.9307066803241688e+00
pressure[sink_22] 4.6380554035205066e+01
pressure[sink_23] 8.0148097922349621e+01
pressure[sink_24] 3.1714844418145711e+00
pressure[sink_25] 73.4902720977447
pressure[sink_26] 6.1609063648201456e+01
pressure[sink_27] 7.6324049895132745e+01
pressure[sink_28] 7.6794885401392719e+01
pressure[sink_29] 77.0901676750099
interdiction[source_1,sink_3] 0
interdiction[innode_1,sink_16] 0
interdiction[innode_6,sink_13] 0
interdiction[sink_13,sink_14] 0
interdiction[sink_14,sink_10] 0
interdiction[sink_25,sink_26] 0
interdiction[sink_26,sink_9] 0
interdiction[sink_9,sink_18] 0
interdiction[sink_26,sink_4] 0
interdiction[sink_4,sink_20] 0
interdiction[sink_18,sink_6] 0
interdiction[sink_25,innode_8] 0
interdiction[sink_6,sink_7] 0
interdiction[sink_6,sink_22] 0
interdiction[sink_7,sink_24] 0
interdiction[sink_22,sink_1] 0
interdiction[sink_24,sink_21] 0
interdiction[sink_21,sink_12] 0
interdiction[sink_7,sink_5] 0
interdiction[sink_5,sink_17] 0
interdiction[sink_17,sink_4] 1
interdiction[sink_17,sink_8] 0
interdiction[sink_3,sink_23] 0
interdiction[sink_8,sink_20] 0
interdiction[sink_25,sink_20] 0
interdiction[sink_25,sink_15] 0
interdiction[sink_15,sink_29] 1
interdiction[sink_29,sink_28] 0
interdiction[sink_29,sink_2] 0
interdiction[sink_2,sink_15] 0
interdiction[sink_29,innode_7] 0
interdiction[innode_4,sink_19] 0
interdiction[sink_19,innode_3] 0
interdiction[innode_4,innode_5] 0
interdiction[sink_27,innode_5] 1
interdiction[sink_27,sink_19] 0
interdiction[sink_10,sink_11] 0
interdiction[sink_10,innode_2] 0
interdiction[sink_10,innode_3] 0
interdiction[innode_6,sink_25] 0
interdiction[sink_11,innode_1] 0
interdiction[sink_19,innode_2] 0
interdiction[source_3,innode_4] 0
interdiction[source_2,innode_7] 0
interdiction[sink_3,innode_8] 0
WCcheckFlow[source_1,sink_3] 39
WCcheckFlow[innode_1,sink_16] 1
WCcheckFlow[innode_6,sink_13] 13
WCcheckFlow[sink_13,sink_14] 12
WCcheckFlow[sink_14,sink_10] 11
WCcheckFlow[sink_25,sink_26] 15
WCcheckFlow[sink_26,sink_9] 12
WCcheckFlow[sink_9,sink_18] 11
WCcheckFlow[sink_26,sink_4] 2
WCcheckFlow[sink_4,sink_20] 1
WCcheckFlow[sink_18,sink_6] 10
WCcheckFlow[sink_25,innode_8] -36
WCcheckFlow[sink_6,sink_7] 7
WCcheckFlow[sink_6,sink_22] 2
WCcheckFlow[sink_7,sink_24] 3
WCcheckFlow[sink_22,sink_1] 1
WCcheckFlow[sink_24,sink_21] 2
WCcheckFlow[sink_21,sink_12] 1
WCcheckFlow[sink_7,sink_5] 3
WCcheckFlow[sink_5,sink_17] 2
WCcheckFlow[sink_17,sink_4] 0
WCcheckFlow[sink_17,sink_8] 1
WCcheckFlow[sink_3,sink_23] 1
WCcheckFlow[sink_8,sink_20] 0
WCcheckFlow[sink_25,sink_20] 0
WCcheckFlow[sink_25,sink_15] 6
WCcheckFlow[sink_15,sink_29] 0
WCcheckFlow[sink_29,sink_28] 1
WCcheckFlow[sink_29,sink_2] -4
WCcheckFlow[sink_2,sink_15] -5
WCcheckFlow[sink_29,innode_7] 2
WCcheckFlow[innode_4,sink_19] -3
WCcheckFlow[sink_19,innode_3] -5
WCcheckFlow[innode_4,innode_5] 1
WCcheckFlow[sink_27,innode_5] 0
WCcheckFlow[sink_27,sink_19] -1
WCcheckFlow[sink_10,sink_11] 3
WCcheckFlow[sink_10,innode_2] 1
WCcheckFlow[sink_10,innode_3] 6
WCcheckFlow[innode_6,sink_25] -14
WCcheckFlow[sink_11,innode_1] 2
WCcheckFlow[sink_19,innode_2] 0
WCcheckFlow[source_3,innode_4] -1
WCcheckFlow[source_2,innode_7] -1
WCcheckFlow[sink_3,innode_8] 37
